decision_x1=[0,4];
decision_x2=[0,4];
decision_x3=[0,4];
decision_x4=[0,4];
decision_x5=[0,4];
decision_x6=[0,4];
decision_x7=[0,4];
decision_x8=[0,4];
decision_x9=[0,4];
decision_x10=[0,4];
random_y1=[0,4];
random_y2=[0,4];
random_y3=[0,4];
random_y4=[0,4];
random_y5=[0,4];
constraint_x2_x1=[
0,1,2.6|
0,2,1.1|
0,3,2|
0,4,1.2|
1,0,0.11|
1,2,4.5|
1,3,9.8|
1,4,5.6|
2,0,4.4|
2,1,7.5|
2,3,8.3|
2,4,3.7|
3,0,3.6|
3,1,3|
3,2,8|
3,4,7.7|
4,0,9|
4,1,2.5|
4,2,1.5|
4,3,6.8|
];
constraint_x4_x2=[
0,1,3.5|
0,2,4.2|
0,3,1.7|
0,4,4.8|
1,0,5.5|
1,2,3.9|
1,3,4.2|
1,4,2.2|
2,0,4.9|
2,1,6.7|
2,3,7.3|
2,4,3|
3,0,2.5|
3,1,3.9|
3,2,7.3|
3,4,4.9|
4,0,5.2|
4,1,6.8|
4,2,5.9|
4,3,4.9|
];
constraint_x5_x1=[
0,1,0.52|
0,2,0.9|
0,3,9.6|
0,4,3.3|
1,0,2.7|
1,2,3.1|
1,3,7.7|
1,4,7.4|
2,0,0.88|
2,1,5.8|
2,3,8.5|
2,4,4.8|
3,0,7.4|
3,1,6.8|
3,2,5.2|
3,4,1.6|
4,0,4.8|
4,1,9.6|
4,2,8.8|
4,3,4.7|
];
constraint_x5_x2=[
0,1,6.8|
0,2,6.2|
0,3,0.19|
0,4,7.5|
1,0,3.8|
1,2,0.97|
1,3,4.2|
1,4,8.7|
2,0,7.5|
2,1,9.7|
2,3,5|
2,4,0.91|
3,0,2.2|
3,1,8.1|
3,2,1.2|
3,4,8.4|
4,0,2.8|
4,1,3.1|
4,2,6.1|
4,3,4.8|
];
constraint_x5_x3=[
0,1,8.8|
0,2,5.9|
0,3,4.5|
0,4,9.1|
1,0,3.2|
1,2,8|
1,3,2.7|
1,4,3.4|
2,0,0.47|
2,1,0.12|
2,3,7.7|
2,4,2.5|
3,0,8.7|
3,1,0.36|
3,2,8.9|
3,4,3.1|
4,0,1.1|
4,1,9|
4,2,0.25|
4,3,7.8|
];
constraint_x5_x4=[
0,1,0.28|
0,2,10|
0,3,1.7|
0,4,6.3|
1,0,6.4|
1,2,7.1|
1,3,8.4|
1,4,2.1|
2,0,0.41|
2,1,3.4|
2,3,5.5|
2,4,2|
3,0,6.4|
3,1,4.5|
3,2,1.9|
3,4,9.2|
4,0,4.3|
4,1,4.6|
4,2,7.4|
4,3,9.2|
];
constraint_x6_x3=[
0,1,1.3|
0,2,8.7|
0,3,7.1|
0,4,3.2|
1,0,1.9|
1,2,0.55|
1,3,6.9|
1,4,2.1|
2,0,6.8|
2,1,4|
2,3,8|
2,4,0.33|
3,0,3.7|
3,1,6.4|
3,2,8.7|
3,4,1.2|
4,0,9.8|
4,1,1.9|
4,2,7.5|
4,3,9.6|
];
constraint_x6_x4=[
0,1,5.3|
0,2,9.5|
0,3,8.6|
0,4,2.5|
1,0,2.3|
1,2,2.4|
1,3,7.2|
1,4,0.43|
2,0,5.5|
2,1,0.81|
2,3,9.4|
2,4,4.5|
3,0,3.1|
3,1,1.2|
3,2,7|
3,4,8.6|
4,0,0.71|
4,1,8.5|
4,2,0.058|
4,3,6.2|
];
constraint_x7_x1=[
0,1,6.4|
0,2,8.3|
0,3,4.2|
0,4,4.7|
1,0,1.6|
1,2,7.8|
1,3,1.9|
1,4,1.2|
2,0,6.1|
2,1,0.31|
2,3,2.6|
2,4,3|
3,0,3.1|
3,1,5.4|
3,2,1.2|
3,4,7.9|
4,0,9.2|
4,1,6.9|
4,2,2.2|
4,3,8.2|
];
constraint_x7_x4=[
0,1,1.2|
0,2,0.59|
0,3,0.94|
0,4,9.2|
1,0,8|
1,2,5.9|
1,3,8.4|
1,4,8.7|
2,0,1.8|
2,1,4|
2,3,4.1|
2,4,6.6|
3,0,4.9|
3,1,0.44|
3,2,8.2|
3,4,1.8|
4,0,1.6|
4,1,9.6|
4,2,5.5|
4,3,0.63|
];
constraint_x7_x5=[
0,1,3.9|
0,2,5.1|
0,3,4.2|
0,4,1.1|
1,0,5.7|
1,2,9.8|
1,3,1.1|
1,4,6.4|
2,0,5|
2,1,1.3|
2,3,6.7|
2,4,7.9|
3,0,1.6|
3,1,3|
3,2,8.4|
3,4,0.05|
4,0,5.6|
4,1,6.6|
4,2,3.2|
4,3,2.2|
];
constraint_x8_x2=[
0,1,10|
0,2,1.4|
0,3,3.9|
0,4,9.9|
1,0,9.9|
1,2,7.2|
1,3,9|
1,4,1.9|
2,0,1.3|
2,1,1.5|
2,3,9.5|
2,4,6.9|
3,0,1.4|
3,1,1.1|
3,2,2.9|
3,4,3.5|
4,0,9.2|
4,1,8|
4,2,5.4|
4,3,8.5|
];
constraint_x8_x3=[
0,1,2.1|
0,2,3.4|
0,3,2.2|
0,4,9.9|
1,0,8.5|
1,2,3.9|
1,3,0.18|
1,4,3.7|
2,0,0.87|
2,1,6.7|
2,3,1.8|
2,4,7.4|
3,0,8.4|
3,1,6.3|
3,2,6.8|
3,4,9|
4,0,9.8|
4,1,3.3|
4,2,3.8|
4,3,6.5|
];
constraint_x9_x1=[
0,1,4.7|
0,2,4.6|
0,3,8.1|
0,4,0.68|
1,0,4.8|
1,2,6.4|
1,3,4.2|
1,4,4.2|
2,0,1.2|
2,1,7.3|
2,3,8.5|
2,4,6.8|
3,0,2.6|
3,1,5.4|
3,2,8.6|
3,4,2.2|
4,0,1.5|
4,1,5.4|
4,2,3.1|
4,3,9.3|
];
constraint_x9_x2=[
0,1,2.7|
0,2,4.3|
0,3,3.9|
0,4,1.8|
1,0,3.6|
1,2,6.3|
1,3,2.8|
1,4,3.2|
2,0,6.9|
2,1,7|
2,3,9.6|
2,4,8.9|
3,0,4|
3,1,3.5|
3,2,9|
3,4,4.2|
4,0,7.2|
4,1,0.43|
4,2,0.13|
4,3,9|
];
constraint_x9_x3=[
0,1,2.2|
0,2,7.7|
0,3,0.48|
0,4,8.3|
1,0,9.9|
1,2,2.5|
1,3,7.5|
1,4,6.1|
2,0,8.8|
2,1,7.5|
2,3,9.4|
2,4,5.1|
3,0,6|
3,1,0.47|
3,2,4.3|
3,4,9.8|
4,0,4|
4,1,5.2|
4,2,7.6|
4,3,2|
];
constraint_x9_x4=[
0,1,7.1|
0,2,8.6|
0,3,6.4|
0,4,0.9|
1,0,3.6|
1,2,4.7|
1,3,9.3|
1,4,8.3|
2,0,8.4|
2,1,2.4|
2,3,0.3|
2,4,4.6|
3,0,8.5|
3,1,1.1|
3,2,9.7|
3,4,2.4|
4,0,9.5|
4,1,6|
4,2,5.7|
4,3,9.3|
];
constraint_x9_x5=[
0,1,3.7|
0,2,6.3|
0,3,8|
0,4,9.3|
1,0,9.5|
1,2,9.6|
1,3,1.8|
1,4,6|
2,0,9.6|
2,1,4.4|
2,3,6.6|
2,4,8.2|
3,0,9.9|
3,1,6.8|
3,2,4.2|
3,4,8.9|
4,0,1.2|
4,1,9.5|
4,2,2.7|
4,3,3.6|
];
constraint_x9_x6=[
0,1,4.5|
0,2,1.4|
0,3,1.3|
0,4,0.59|
1,0,7.2|
1,2,3.1|
1,3,6.9|
1,4,4|
2,0,1.5|
2,1,1.4|
2,3,7|
2,4,6.2|
3,0,5.4|
3,1,2.2|
3,2,1.4|
3,4,2.7|
4,0,3.4|
4,1,2.9|
4,2,7.1|
4,3,7.5|
];
constraint_x10_x1=[
0,1,3|
0,2,0.5|
0,3,5.5|
0,4,8.7|
1,0,3|
1,2,9.8|
1,3,0.18|
1,4,0.74|
2,0,1.7|
2,1,5.3|
2,3,5.8|
2,4,0.22|
3,0,7.2|
3,1,7.7|
3,2,8.7|
3,4,9.1|
4,0,1.4|
4,1,7.9|
4,2,3.3|
4,3,7.4|
];
constraint_x10_x3=[
0,1,4|
0,2,6.2|
0,3,9.9|
0,4,4.8|
1,0,1.8|
1,2,1.9|
1,3,8.7|
1,4,5.4|
2,0,6.9|
2,1,1.3|
2,3,6.5|
2,4,2.1|
3,0,5|
3,1,2.5|
3,2,3.4|
3,4,1.5|
4,0,4.8|
4,1,8.2|
4,2,9|
4,3,9.4|
];
constraint_x10_x6=[
0,1,0.19|
0,2,9.4|
0,3,7.7|
0,4,0.23|
1,0,4.8|
1,2,2.2|
1,3,9.6|
1,4,7.4|
2,0,8.1|
2,1,8.4|
2,3,5.3|
2,4,0.41|
3,0,8.3|
3,1,9|
3,2,1.7|
3,4,0.25|
4,0,9.3|
4,1,3.2|
4,2,0.2|
4,3,3.2|
];
constraint_x10_x7=[
0,1,0.36|
0,2,1.8|
0,3,2|
0,4,3.1|
1,0,7.9|
1,2,7.2|
1,3,4.7|
1,4,3.5|
2,0,2.3|
2,1,5.6|
2,3,5.5|
2,4,0.16|
3,0,1.8|
3,1,3.9|
3,2,1.3|
3,4,1.3|
4,0,2.4|
4,1,6.7|
4,2,6.3|
4,3,2.2|
];
constraint_x1_y1=[
0,0,3.3|
0,1,6.6|
0,2,6.4|
0,3,0.98|
0,4,3.8|
1,0,6.2|
1,1,8.6|
1,2,7.5|
1,3,5.7|
1,4,7.7|
2,0,0.44|
2,1,8.4|
2,2,7.8|
2,3,8.1|
2,4,7.8|
3,0,0.87|
3,1,2.7|
3,2,5.6|
3,3,0.4|
3,4,3.9|
4,0,2.5|
4,1,6.6|
4,2,8.8|
4,3,7|
4,4,7.3|
];
constraint_x2_y2=[
0,0,5.7|
0,1,2.5|
0,2,4.2|
0,3,0.39|
0,4,8.4|
1,0,7.4|
1,1,8.2|
1,2,1.2|
1,3,8.3|
1,4,3.9|
2,0,1.7|
2,1,9.1|
2,2,3|
2,3,0.36|
2,4,8.6|
3,0,4.2|
3,1,3.2|
3,2,0.67|
3,3,2|
3,4,0.89|
4,0,7.4|
4,1,6.8|
4,2,9|
4,3,3.4|
4,4,2.7|
];
constraint_x3_y3=[
0,0,9.8|
0,1,2.3|
0,2,7.6|
0,3,8.9|
0,4,6.7|
1,0,0.74|
1,1,5.4|
1,2,3.7|
1,3,5.8|
1,4,9.8|
2,0,8.7|
2,1,1.6|
2,2,2.2|
2,3,8.6|
2,4,3.2|
3,0,3.2|
3,1,9.7|
3,2,1.8|
3,3,7.7|
3,4,7.1|
4,0,7.3|
4,1,6.2|
4,2,9.6|
4,3,6.2|
4,4,4|
];
constraint_x4_y4=[
0,0,6.4|
0,1,9.3|
0,2,8.4|
0,3,4.9|
0,4,3.1|
1,0,3.5|
1,1,9.9|
1,2,8.5|
1,3,8.4|
1,4,9|
2,0,7.4|
2,1,7.8|
2,2,8.3|
2,3,9|
2,4,2.5|
3,0,3.1|
3,1,5.8|
3,2,4.6|
3,3,3.8|
3,4,9.5|
4,0,6.3|
4,1,6.8|
4,2,8.9|
4,3,6.5|
4,4,6.7|
];
constraint_x5_y5=[
0,0,3.9|
0,1,8.8|
0,2,2.3|
0,3,0.5|
0,4,6.7|
1,0,7.8|
1,1,0.43|
1,2,6.9|
1,3,8.3|
1,4,8.2|
2,0,2.3|
2,1,8.6|
2,2,7.5|
2,3,7.7|
2,4,9.9|
3,0,7.7|
3,1,8.3|
3,2,3.2|
3,3,9.5|
3,4,5.7|
4,0,6|
4,1,1.4|
4,2,4|
4,3,9|
4,4,0.14|
];
initial_distribution_y1=[0.17,0.29,0.23,0.023,0.29];
initial_distribution_y2=[0.13,0.17,0.057,0.35,0.29];
initial_distribution_y3=[0.03,0.04,0.37,0.37,0.19];
initial_distribution_y4=[0.19,0.23,0.31,0.012,0.25];
initial_distribution_y5=[0.29,0.2,0.24,0.15,0.12];
transition_y1=[
0.26,0.26,0.26,0.16,0.05|
0.38,0.17,0.22,0.095,0.13|
0.09,0.23,0.29,0.27,0.13|
0.22,0.26,0.25,0.075,0.19|
0.15,0.24,0.022,0.3,0.29|
];
transition_y2=[
0.28,0.095,0.24,0.27,0.12|
0.15,0.22,0.22,0.31,0.096|
0.36,0.068,0.069,0.25,0.25|
0.31,0.34,0.25,0.028,0.068|
0.36,0.0078,0.13,0.16,0.34|
];
transition_y3=[
0.23,0.17,0.32,0.043,0.23|
0.19,0.16,0.057,0.35,0.25|
0.078,0.022,0.23,0.31,0.36|
0.3,0.021,0.3,0.16,0.22|
0.13,0.16,0.31,0.027,0.38|
];
transition_y4=[
0.24,0.23,0.065,0.11,0.35|
0.2,0.054,0.27,0.28,0.19|
0.22,0.28,0.12,0.3,0.078|
0.11,0.011,0.044,0.28,0.55|
0.31,0.31,0.24,0.089,0.04|
];
transition_y5=[
0.02,0.29,0.52,0.13,0.043|
0.11,0.22,0.25,0.14,0.28|
0.17,0.37,0.15,0.065,0.25|
0.23,0.34,0.11,0.25,0.081|
0.25,0.26,0.031,0.23,0.23|
];
